c description: Random 3-CNF over 16 variables and 68 clauses
c generator: CNFgen (0.9.2)
c copyright: (C) 2012-2022 Massimo Lauria <massimo.lauria@uniroma1.it>
c url: https://massimolauria.net/cnfgen
c command line: cnfgen --output CNF_4.28/16_bit_68_716.cnf randkcnf 3 16 68
c
p cnf 16 68
3 -6 9 0
-2 9 -10 0
13 -14 16 0
-3 6 -11 0
6 12 16 0
-3 5 10 0
-4 -8 12 0
2 6 16 0
-5 -9 -10 0
2 4 6 0
-1 -3 -7 0
-6 9 -11 0
1 2 -15 0
3 -15 16 0
2 -5 7 0
4 14 -15 0
6 10 -14 0
-1 12 16 0
6 11 12 0
-1 -3 11 0
-3 -6 11 0
6 9 16 0
-3 9 -13 0
2 -12 13 0
2 -3 7 0
-1 8 14 0
1 10 -12 0
-4 -6 9 0
2 11 12 0
4 6 8 0
1 11 13 0
-3 -7 -13 0
6 7 12 0
-10 11 14 0
-6 -7 8 0
-1 7 -16 0
7 -9 -10 0
3 -5 -14 0
-2 -12 16 0
4 6 -16 0
1 9 -11 0
-4 11 -12 0
-6 -9 -13 0
1 -2 -6 0
-9 -11 15 0
1 2 12 0
-4 7 11 0
-4 -10 13 0
6 -12 -13 0
9 10 15 0
4 11 15 0
4 -8 -13 0
4 -7 -15 0
8 -11 -13 0
3 13 -15 0
-10 -12 -16 0
2 -3 -10 0
10 13 -15 0
1 -12 -14 0
8 13 -15 0
9 10 -13 0
2 -12 -16 0
-6 11 -15 0
9 11 13 0
4 -5 11 0
-3 -10 14 0
-8 11 -16 0
-4 -5 -6 0
